experiments/knapsack_bounded/knapsack_bounded_25_5.mps
NAME
ROWS
 N  OBJ
 L  c1
 L  c2
 L  c3
 L  c4
 L  c5
 L  c6
 L  c7
 L  c8
 L  c9
 L  c10
 L  c11
 L  c12
 L  c13
 L  c14
 L  c15
 L  c16
 L  c17
 L  c18
 L  c19
 L  c20
 L  c21
 L  c22
 L  c23
 L  c24
 L  c25
 L  c26
COLUMNS
    MARKER    'MARKER'                 'INTORG'
    x[1]      c1        321
    x[1]      c2        1
    x[1]      OBJ       -452
    x[2]      c1        254
    x[2]      c3        1
    x[2]      OBJ       -998
    x[3]      c1        187
    x[3]      c4        1
    x[3]      OBJ       -28
    x[4]      c1        627
    x[4]      c5        1
    x[4]      OBJ       -772
    x[5]      c1        748
    x[5]      c6        1
    x[5]      OBJ       -324
    x[6]      c1        339
    x[6]      c7        1
    x[6]      OBJ       -132
    x[7]      c1        276
    x[7]      c8        1
    x[7]      OBJ       -812
    x[8]      c1        134
    x[8]      c9        1
    x[8]      OBJ       -319
    x[9]      c1        173
    x[9]      c10       1
    x[9]      OBJ       -845
    x[10]     c1        267
    x[10]     c11       1
    x[10]     OBJ       -649
    x[11]     c1        17
    x[11]     c12       1
    x[11]     OBJ       -96
    x[12]     c1        722
    x[12]     c13       1
    x[12]     OBJ       -811
    x[13]     c1        685
    x[13]     c14       1
    x[13]     OBJ       -75
    x[14]     c1        140
    x[14]     c15       1
    x[14]     OBJ       -557
    x[15]     c1        354
    x[15]     c16       1
    x[15]     OBJ       -87
    x[16]     c1        543
    x[16]     c17       1
    x[16]     OBJ       -86
    x[17]     c1        632
    x[17]     c18       1
    x[17]     OBJ       -973
    x[18]     c1        356
    x[18]     c19       1
    x[18]     OBJ       -472
    x[19]     c1        988
    x[19]     c20       1
    x[19]     OBJ       -462
    x[20]     c1        97
    x[20]     c21       1
    x[20]     OBJ       -342
    x[21]     c1        481
    x[21]     c22       1
    x[21]     OBJ       -189
    x[22]     c1        608
    x[22]     c23       1
    x[22]     OBJ       -781
    x[23]     c1        810
    x[23]     c24       1
    x[23]     OBJ       -970
    x[24]     c1        978
    x[24]     c25       1
    x[24]     OBJ       -390
    x[25]     c1        861
    x[25]     c26       1
    x[25]     OBJ       -451
    MARKER    'MARKER'                 'INTEND'
RHS
    rhs       c1        5799
    rhs       c2        10
    rhs       c3        3
    rhs       c4        7
    rhs       c5        7
    rhs       c6        6
    rhs       c7        7
    rhs       c8        4
    rhs       c9        5
    rhs       c10       10
    rhs       c11       8
    rhs       c12       10
    rhs       c13       3
    rhs       c14       10
    rhs       c15       5
    rhs       c16       4
    rhs       c17       10
    rhs       c18       5
    rhs       c19       2
    rhs       c20       3
    rhs       c21       9
    rhs       c22       7
    rhs       c23       8
    rhs       c24       8
    rhs       c25       4
    rhs       c26       4
RANGES
BOUNDS
 LO bounds    x[1]      0
 PL bounds    x[1]
 LO bounds    x[2]      0
 PL bounds    x[2]
 LO bounds    x[3]      0
 PL bounds    x[3]
 LO bounds    x[4]      0
 PL bounds    x[4]
 LO bounds    x[5]      0
 PL bounds    x[5]
 LO bounds    x[6]      0
 PL bounds    x[6]
 LO bounds    x[7]      0
 PL bounds    x[7]
 LO bounds    x[8]      0
 PL bounds    x[8]
 LO bounds    x[9]      0
 PL bounds    x[9]
 LO bounds    x[10]     0
 PL bounds    x[10]
 LO bounds    x[11]     0
 PL bounds    x[11]
 LO bounds    x[12]     0
 PL bounds    x[12]
 LO bounds    x[13]     0
 PL bounds    x[13]
 LO bounds    x[14]     0
 PL bounds    x[14]
 LO bounds    x[15]     0
 PL bounds    x[15]
 LO bounds    x[16]     0
 PL bounds    x[16]
 LO bounds    x[17]     0
 PL bounds    x[17]
 LO bounds    x[18]     0
 PL bounds    x[18]
 LO bounds    x[19]     0
 PL bounds    x[19]
 LO bounds    x[20]     0
 PL bounds    x[20]
 LO bounds    x[21]     0
 PL bounds    x[21]
 LO bounds    x[22]     0
 PL bounds    x[22]
 LO bounds    x[23]     0
 PL bounds    x[23]
 LO bounds    x[24]     0
 PL bounds    x[24]
 LO bounds    x[25]     0
 PL bounds    x[25]
ENDATA
